GLPSOL--GLPK LP/MIP Solver 5.0
Parameter(s) specified in the command line:
 --lp ../modeles/3_214.lp --log 3_214.log
Reading problem data from '../modeles/3_214.lp'...
655 rows, 1290 columns, 4503 non-zeros
642 integer variables, all of which are binary
1954 lines were read
GLPK Integer Optimizer 5.0
655 rows, 1290 columns, 4503 non-zeros
642 integer variables, all of which are binary
Preprocessing...
630 constraint coefficient(s) were reduced
655 rows, 1287 columns, 4500 non-zeros
642 integer variables, all of which are binary
Scaling...
 A: min|aij| =  3.494e-04  max|aij| =  4.000e+00  ratio =  1.145e+04
GM: min|aij| =  9.667e-02  max|aij| =  1.034e+01  ratio =  1.070e+02
EQ: min|aij| =  9.346e-03  max|aij| =  1.000e+00  ratio =  1.070e+02
2N: min|aij| =  7.812e-03  max|aij| =  1.745e+00  ratio =  2.234e+02
Constructing initial basis...
Size of triangular part is 655
Solving LP relaxation...
GLPK Simplex Optimizer 5.0
655 rows, 1287 columns, 4500 non-zeros
      0: obj =   6.000000000e+00 inf =   1.450e+01 (7)
     44: obj =   4.216791159e-01 inf =   0.000e+00 (0)
*   173: obj =  -1.731959553e+00 inf =   7.729e-16 (0)
OPTIMAL LP SOLUTION FOUND
Integer optimization begins...
Long-step dual simplex will be used
+   173: mip =     not found yet >=              -inf        (1; 0)
+   177: >>>>>  -1.731959553e+00 >=  -1.731959553e+00 < 0.1% (4; 0)
+   177: mip =  -1.731959553e+00 >=     tree is empty   0.0% (0; 7)
INTEGER OPTIMAL SOLUTION FOUND
Time used:   0.0 secs
Memory used: 1.9 Mb (1976359 bytes)
